Route #1: 46 4 11 50 7 17
Route #2: 14 20 19 35 49 1 36 39
Route #3: 42 34 6 64 40 44 53
Route #4: 60 3 57 30 61 62
Route #5: 9 48 25 21 63
Route #6: 5 28 13
Route #7: 58 56 15 55 54 22 52 45 12
Route #8: 31 18 26 2 66 47 33
Route #9: 16 43 10 8 23 37 65 32
Route #10: 38 29 24 59 51 27 41
Cost 1036
Time 0.146857
